Route #1:
Route #2: 30 27
Route #3: 20 28 6 2 3 13 17
Route #4: 31
Route #5: 18 21
Route #6: 24
Route #7: 25
Route #8: 5 29
Route #9: 14 16 1 10
Route #10: 7 12 26 23
Route #11: 15 22 19 8 11 9
Route #12: 4

Cost: 2172.9526366556797
